48
1000
200	5
199	1
198	3
197	6
196	1
195	2
194	2
193	1
192	3
191	3
190	2
189	1
188	3
186	2
185	4
184	2
183	2
182	1
181	2
180	2
179	2
178	1
177	3
175	4
173	3
172	1
171	4
170	4
169	1
168	1
167	3
166	2
165	2
164	2
163	2
162	2
161	3
160	3
159	4
158	5
157	1
156	4
155	2
154	2
153	3
152	3
151	1
150	4
